width = 33;

n_circuits = 23;

circuit_x = array1d(1..23, [3, 3, 3, 3, 3, 3, 3, 3, 3, 3, 3, 3, 3, 3, 3, 4, 4, 4,
    4, 4, 4, 4, 7]);

circuit_y = array1d(1..23, [3, 4, 5, 6, 7, 8, 9, 10, 13, 14, 15, 17, 24, 30, 33,
    3, 4, 6, 10, 12, 14, 17, 33]);

opt_height = 33;

max_y = 33;

